4 175 169 163 157 151 145 139 133 127 121 115 109 103 97 91 85 79 73 67 61 55 49 43 37 31 25 19 13 7 1 195 188 181 173 165 156 148 140 131 123 114 106 98 89 81 72 64 56 47 39 30 22 14 6 197 187 178 167 155 144 134 122 111 100 88 77 66 54 44 33 21 11 199 186 174 160 146 130 117 102 87 74 59 45 29 16 2 189 171 153 136 118 99 82 63 46 27 10 192 172 150 128 107 84 62 40 20 196 176 147 120 94 69 41 17 190 161 129 96 68 35 5 177 138 104 65 32 193 154 112 71 28 184 141 92 50 198 143 93 152 113 124 57 3 137 70 8 24 86 76 101 36 80 182 75 18 53 34 0 105 95 168 183 185 158 52 58 60 191 51 110 164 149 142 126 12 83 119 26 135 23 125 159 78 179 9 108 162 42 132 116 38 170 48 15 90 166 180 194 

